Running HiGHS 1.8.1 (git hash: 4a7f24a): Copyright (c) 2024 HiGHS under MIT licence terms
Reading model file  50Vertices.lp  returns a status of  HighsStatus.kOk
Coefficient ranges:
  Matrix [1e-03, 1e+03]
  Cost   [1e+00, 1e+00]
  Bound  [1e+00, 2e+09]
  RHS    [1e+00, 1e+03]
Presolving model
1302 rows, 1227 cols, 5221 nonzeros  0s
784 rows, 755 cols, 3879 nonzeros  0s
399 rows, 346 cols, 1755 nonzeros  0s
344 rows, 286 cols, 1342 nonzeros  0s
336 rows, 283 cols, 1307 nonzeros  0s

Solving MIP model with:
   336 rows
   283 cols (37 binary, 0 integer, 4 implied int., 242 continuous)
   1307 nonzeros
MIP-Timing:       0.019 - starting analytic centre calculation

Src: B => Branching; C => Central rounding; F => Feasibility pump; H => Heuristic; L => Sub-MIP;
     P => Empty MIP; R => Randomized rounding; S => Solve LP; T => Evaluate node; U => Unbounded;
     z => Trivial zero; l => Trivial lower; u => Trivial upper; p => Trivial point

        Nodes      |    B&B Tree     |            Objective Bounds              |  Dynamic Constraints |       Work      
Src  Proc. InQueue |  Leaves   Expl. | BestBound       BestSol              Gap |   Cuts   InLp Confl. | LpIters     Time

         0       0         0   0.00%   -0.723550976    inf                  inf        0      0      0         0     0.0s
         0       0         0   0.00%   -0.2226395955   inf                  inf        0      0      6       337     0.0s
 C       0       0         0   0.00%   -0.2037403946   -0.062100423     228.08%      290     51     26       512     0.1s

2.7% inactive integer columns, restarting
Model after restart has 313 rows, 262 cols (35 bin., 0 int., 4 impl., 223 cont.), and 1227 nonzeros

         0       0         0   0.00%   -0.1972702768   -0.062100423     217.66%       40      0      0      1233     0.2s
         0       0         0   0.00%   -0.1972340636   -0.062100423     217.61%       40     37      7      1363     0.2s

Symmetry detection completed in 0.0s
No symmetry present

 L       0       0         0   0.00%   -0.1932534891   -0.1130510455     70.94%      426     44      7      3786     0.6s
 B      32       1        13  55.86%   -0.1932534891   -0.1130510455     70.94%      454     44    129     11568     0.8s
        66       0        30 100.00%   -0.1130510455   -0.1130510455      0.00%      484     44    356     14381     1.0s

Solving report
  Model             50Vertices
  Status            Optimal
  Primal bound      -0.1130510455
  Dual bound        -0.1130510455
  Gap               0% (tolerance: 0.01%)
  P-D integral      1.45949340015
  Solution status   feasible
                    -0.1130510455 (objective)
                    0 (bound viol.)
                    4.61749244464e-12 (int. viol.)
                    0 (row viol.)
  Timing            0.96 (total)
                    0.00 (presolve)
                    0.00 (solve)
                    0.00 (postsolve)
  Max sub-MIP depth 3
  Nodes             66
  Repair LPs        0 (0 feasible; 0 iterations)
  LP iterations     14381 (total)
                    7228 (strong br.)
                    523 (separation)
                    4466 (heuristics)
Model status =  Optimal

Optimal objective =  -0.11305104550009142
Iteration count =  14381
Primal solution status =  Feasible
Dual solution status =  None
Basis validity =  Not valid
Writing the solution to ./50Vertices.sol

